HorasDisponibles = 24 ; 		% Cantidad de horas habiles para que barco pueda partir

NumBarcos = 53 ; 		% Cantidad de barcos que cruzaran el canal

NumCanales = 3;  

Velocidades = [ 
66000  ,		%  Barco 1
66000  ,		%  Barco 2
66000  ,		%  Barco 3
358  ,		%  Barco 4
552  ,		%  Barco 5
592  ,		%  Barco 6
384  ,		%  Barco 7
697  ,		%  Barco 8
617  ,		%  Barco 9
531  ,		%  Barco 10
387  ,		%  Barco 11
636  ,		%  Barco 12
596  ,		%  Barco 13
485  ,		%  Barco 14
637  ,		%  Barco 15
472  ,		%  Barco 16
363  ,		%  Barco 17
633  ,		%  Barco 18
304  ,		%  Barco 19
613  ,		%  Barco 20
414  ,		%  Barco 21
455  ,		%  Barco 22
840  ,		%  Barco 23
470  ,		%  Barco 24
720  ,		%  Barco 25
537  ,		%  Barco 26
520  ,		%  Barco 27
407  ,		%  Barco 28
223  ,		%  Barco 29
318  ,		%  Barco 30
490  ,		%  Barco 31
392  ,		%  Barco 32
603  ,		%  Barco 33
625  ,		%  Barco 34
517  ,		%  Barco 35
494  ,		%  Barco 36
255  ,		%  Barco 37
359  ,		%  Barco 38
253  ,		%  Barco 39
512  ,		%  Barco 40
365  ,		%  Barco 41
496  ,		%  Barco 42
943  ,		%  Barco 43
779  ,		%  Barco 44
568  ,		%  Barco 45
176  ,		%  Barco 46
441  ,		%  Barco 47
723  ,		%  Barco 48
525  ,		%  Barco 49
405  ,		%  Barco 50
432  ,		%  Barco 51
429  ,		%  Barco 52
343  ,		%  Barco 53
625  ,		%  Barco 54
299  ,		%  Barco 55
679  ,		%  Barco 56
66000  ,		%  Barco 57
66000  ,		%  Barco 58
66000  ,		%  Barco 59
 ]; 
HoraEstimadaCruce = [ 
0  ,		%  Barco 1
0  ,		%  Barco 2
0  ,		%  Barco 3
0  ,		%  Barco 4
18  ,		%  Barco 5
11  ,		%  Barco 6
21  ,		%  Barco 7
10  ,		%  Barco 8
11  ,		%  Barco 9
10  ,		%  Barco 10
4  ,		%  Barco 11
8  ,		%  Barco 12
15  ,		%  Barco 13
17  ,		%  Barco 14
11  ,		%  Barco 15
10  ,		%  Barco 16
8  ,		%  Barco 17
23  ,		%  Barco 18
8  ,		%  Barco 19
17  ,		%  Barco 20
5  ,		%  Barco 21
5  ,		%  Barco 22
9  ,		%  Barco 23
20  ,		%  Barco 24
14  ,		%  Barco 25
4  ,		%  Barco 26
16  ,		%  Barco 27
1  ,		%  Barco 28
7  ,		%  Barco 29
21  ,		%  Barco 30
10  ,		%  Barco 31
22  ,		%  Barco 32
3  ,		%  Barco 33
10  ,		%  Barco 34
11  ,		%  Barco 35
4  ,		%  Barco 36
16  ,		%  Barco 37
8  ,		%  Barco 38
6  ,		%  Barco 39
23  ,		%  Barco 40
9  ,		%  Barco 41
13  ,		%  Barco 42
18  ,		%  Barco 43
7  ,		%  Barco 44
11  ,		%  Barco 45
0  ,		%  Barco 46
21  ,		%  Barco 47
21  ,		%  Barco 48
22  ,		%  Barco 49
23  ,		%  Barco 50
1  ,		%  Barco 51
2  ,		%  Barco 52
15  ,		%  Barco 53
13  ,		%  Barco 54
6  ,		%  Barco 55
14  ,		%  Barco 56
24  ,		%  Barco 57
24  ,		%  Barco 58
24  ,		%  Barco 59
 ]; 
PuntoDeArranque = [ 
0  ,		%  Barco 1
0  ,		%  Barco 2
0  ,		%  Barco 3
1  ,		%  Barco 4
0  ,		%  Barco 5
0  ,		%  Barco 6
1  ,		%  Barco 7
0  ,		%  Barco 8
1  ,		%  Barco 9
1  ,		%  Barco 10
0  ,		%  Barco 11
0  ,		%  Barco 12
0  ,		%  Barco 13
1  ,		%  Barco 14
1  ,		%  Barco 15
1  ,		%  Barco 16
1  ,		%  Barco 17
1  ,		%  Barco 18
0  ,		%  Barco 19
1  ,		%  Barco 20
0  ,		%  Barco 21
0  ,		%  Barco 22
1  ,		%  Barco 23
1  ,		%  Barco 24
1  ,		%  Barco 25
1  ,		%  Barco 26
0  ,		%  Barco 27
0  ,		%  Barco 28
0  ,		%  Barco 29
0  ,		%  Barco 30
0  ,		%  Barco 31
0  ,		%  Barco 32
0  ,		%  Barco 33
1  ,		%  Barco 34
0  ,		%  Barco 35
1  ,		%  Barco 36
1  ,		%  Barco 37
1  ,		%  Barco 38
0  ,		%  Barco 39
0  ,		%  Barco 40
1  ,		%  Barco 41
0  ,		%  Barco 42
1  ,		%  Barco 43
1  ,		%  Barco 44
1  ,		%  Barco 45
1  ,		%  Barco 46
1  ,		%  Barco 47
0  ,		%  Barco 48
0  ,		%  Barco 49
0  ,		%  Barco 50
0  ,		%  Barco 51
0  ,		%  Barco 52
0  ,		%  Barco 53
0  ,		%  Barco 54
0  ,		%  Barco 55
0  ,		%  Barco 56
0  ,		%  Barco 57
0  ,		%  Barco 58
0  ,		%  Barco 59
 ]; 
HorasDisponibles = 24 ; 		% Cantidad de horas habiles para que barco pueda partir

NumBarcos = 52 ; 		% Cantidad de barcos que cruzaran el canal

NumCanales = 3;  

Velocidades = [ 
66000  ,		%  Barco 1
66000  ,		%  Barco 2
66000  ,		%  Barco 3
679  ,		%  Barco 4
671  ,		%  Barco 5
710  ,		%  Barco 6
561  ,		%  Barco 7
485  ,		%  Barco 8
367  ,		%  Barco 9
504  ,		%  Barco 10
387  ,		%  Barco 11
257  ,		%  Barco 12
571  ,		%  Barco 13
519  ,		%  Barco 14
672  ,		%  Barco 15
698  ,		%  Barco 16
295  ,		%  Barco 17
380  ,		%  Barco 18
332  ,		%  Barco 19
614  ,		%  Barco 20
421  ,		%  Barco 21
523  ,		%  Barco 22
471  ,		%  Barco 23
339  ,		%  Barco 24
599  ,		%  Barco 25
698  ,		%  Barco 26
324  ,		%  Barco 27
638  ,		%  Barco 28
604  ,		%  Barco 29
702  ,		%  Barco 30
275  ,		%  Barco 31
695  ,		%  Barco 32
595  ,		%  Barco 33
570  ,		%  Barco 34
322  ,		%  Barco 35
250  ,		%  Barco 36
308  ,		%  Barco 37
647  ,		%  Barco 38
318  ,		%  Barco 39
433  ,		%  Barco 40
381  ,		%  Barco 41
337  ,		%  Barco 42
749  ,		%  Barco 43
371  ,		%  Barco 44
443  ,		%  Barco 45
505  ,		%  Barco 46
653  ,		%  Barco 47
392  ,		%  Barco 48
754  ,		%  Barco 49
565  ,		%  Barco 50
666  ,		%  Barco 51
524  ,		%  Barco 52
565  ,		%  Barco 53
767  ,		%  Barco 54
736  ,		%  Barco 55
66000  ,		%  Barco 56
66000  ,		%  Barco 57
66000  ,		%  Barco 58
 ]; 
HoraEstimadaCruce = [ 
0  ,		%  Barco 1
0  ,		%  Barco 2
0  ,		%  Barco 3
22  ,		%  Barco 4
7  ,		%  Barco 5
24  ,		%  Barco 6
22  ,		%  Barco 7
24  ,		%  Barco 8
23  ,		%  Barco 9
12  ,		%  Barco 10
3  ,		%  Barco 11
21  ,		%  Barco 12
11  ,		%  Barco 13
4  ,		%  Barco 14
1  ,		%  Barco 15
19  ,		%  Barco 16
6  ,		%  Barco 17
13  ,		%  Barco 18
4  ,		%  Barco 19
6  ,		%  Barco 20
14  ,		%  Barco 21
18  ,		%  Barco 22
6  ,		%  Barco 23
17  ,		%  Barco 24
20  ,		%  Barco 25
4  ,		%  Barco 26
11  ,		%  Barco 27
20  ,		%  Barco 28
14  ,		%  Barco 29
20  ,		%  Barco 30
13  ,		%  Barco 31
15  ,		%  Barco 32
19  ,		%  Barco 33
9  ,		%  Barco 34
16  ,		%  Barco 35
17  ,		%  Barco 36
3  ,		%  Barco 37
7  ,		%  Barco 38
3  ,		%  Barco 39
11  ,		%  Barco 40
2  ,		%  Barco 41
1  ,		%  Barco 42
17  ,		%  Barco 43
13  ,		%  Barco 44
19  ,		%  Barco 45
17  ,		%  Barco 46
5  ,		%  Barco 47
22  ,		%  Barco 48
22  ,		%  Barco 49
11  ,		%  Barco 50
17  ,		%  Barco 51
24  ,		%  Barco 52
11  ,		%  Barco 53
14  ,		%  Barco 54
11  ,		%  Barco 55
24  ,		%  Barco 56
24  ,		%  Barco 57
24  ,		%  Barco 58
 ]; 
PuntoDeArranque = [ 
0  ,		%  Barco 1
0  ,		%  Barco 2
0  ,		%  Barco 3
0  ,		%  Barco 4
0  ,		%  Barco 5
0  ,		%  Barco 6
1  ,		%  Barco 7
1  ,		%  Barco 8
1  ,		%  Barco 9
1  ,		%  Barco 10
1  ,		%  Barco 11
0  ,		%  Barco 12
0  ,		%  Barco 13
1  ,		%  Barco 14
0  ,		%  Barco 15
0  ,		%  Barco 16
0  ,		%  Barco 17
1  ,		%  Barco 18
1  ,		%  Barco 19
0  ,		%  Barco 20
1  ,		%  Barco 21
0  ,		%  Barco 22
1  ,		%  Barco 23
1  ,		%  Barco 24
0  ,		%  Barco 25
0  ,		%  Barco 26
1  ,		%  Barco 27
1  ,		%  Barco 28
0  ,		%  Barco 29
1  ,		%  Barco 30
0  ,		%  Barco 31
1  ,		%  Barco 32
1  ,		%  Barco 33
0  ,		%  Barco 34
1  ,		%  Barco 35
1  ,		%  Barco 36
1  ,		%  Barco 37
1  ,		%  Barco 38
1  ,		%  Barco 39
1  ,		%  Barco 40
1  ,		%  Barco 41
1  ,		%  Barco 42
1  ,		%  Barco 43
0  ,		%  Barco 44
1  ,		%  Barco 45
0  ,		%  Barco 46
0  ,		%  Barco 47
0  ,		%  Barco 48
0  ,		%  Barco 49
1  ,		%  Barco 50
1  ,		%  Barco 51
1  ,		%  Barco 52
0  ,		%  Barco 53
0  ,		%  Barco 54
1  ,		%  Barco 55
0  ,		%  Barco 56
0  ,		%  Barco 57
0  ,		%  Barco 58
 ]; 
